p cnf 590 2004
c p weight 236 -1 0
c p weight -236 1 0
c p weight 238 6.12323399573676603586882014729198302312846062338790031898128063403419218957424163818359375E-17 0
c p weight -238 1 0
c p weight 239 1 0
c p weight -239 1 0
c p weight 240 -1 0
c p weight -240 1 0
c p weight 242 -1 0
c p weight -242 1 0
c p weight 245 -1 0
c p weight -245 1 0
c p weight 248 -1 0
c p weight -248 1 0
c p weight 251 -1 0
c p weight -251 1 0
c p weight 254 -1 0
c p weight -254 1 0
c p weight 257 -1 0
c p weight -257 1 0
c p weight 260 -1 0
c p weight -260 1 0
c p weight 263 -1 0
c p weight -263 1 0
c p weight 266 -1 0
c p weight -266 1 0
c p weight 269 -1 0
c p weight -269 1 0
c p weight 272 -1 0
c p weight -272 1 0
c p weight 275 -1 0
c p weight -275 1 0
c p weight 278 -1 0
c p weight -278 1 0
c p weight 281 -1 0
c p weight -281 1 0
c p weight 284 -1 0
c p weight -284 1 0
c p weight 287 -1 0
c p weight -287 1 0
c p weight 290 -1 0
c p weight -290 1 0
c p weight 293 -1 0
c p weight -293 1 0
c p weight 296 -1 0
c p weight -296 1 0
c p weight 299 -1 0
c p weight -299 1 0
c p weight 302 -1 0
c p weight -302 1 0
c p weight 305 -1 0
c p weight -305 1 0
c p weight 308 -1 0
c p weight -308 1 0
c p weight 311 -1 0
c p weight -311 1 0
c p weight 314 -1 0
c p weight -314 1 0
c p weight 317 -1 0
c p weight -317 1 0
c p weight 320 -1 0
c p weight -320 1 0
c p weight 323 -1 0
c p weight -323 1 0
c p weight 326 -1 0
c p weight -326 1 0
c p weight 329 -1 0
c p weight -329 1 0
c p weight 332 -1 0
c p weight -332 1 0
c p weight 335 -1 0
c p weight -335 1 0
c p weight 338 -1 0
c p weight -338 1 0
c p weight 341 -1 0
c p weight -341 1 0
c p weight 344 -1 0
c p weight -344 1 0
c p weight 347 -1 0
c p weight -347 1 0
c p weight 350 -1 0
c p weight -350 1 0
c p weight 353 -1 0
c p weight -353 1 0
c p weight 356 -1 0
c p weight -356 1 0
c p weight 359 -1 0
c p weight -359 1 0
c p weight 362 -1 0
c p weight -362 1 0
c p weight 365 -1 0
c p weight -365 1 0
c p weight 368 -1 0
c p weight -368 1 0
c p weight 371 -1 0
c p weight -371 1 0
c p weight 374 -1 0
c p weight -374 1 0
c p weight 377 -1 0
c p weight -377 1 0
c p weight 380 -1 0
c p weight -380 1 0
c p weight 383 -1 0
c p weight -383 1 0
c p weight 386 -1 0
c p weight -386 1 0
c p weight 389 -1 0
c p weight -389 1 0
c p weight 392 -1 0
c p weight -392 1 0
c p weight 395 -1 0
c p weight -395 1 0
c p weight 398 -1 0
c p weight -398 1 0
c p weight 401 -1 0
c p weight -401 1 0
c p weight 404 -1 0
c p weight -404 1 0
c p weight 407 -1 0
c p weight -407 1 0
c p weight 410 -1 0
c p weight -410 1 0
c p weight 413 -1 0
c p weight -413 1 0
c p weight 416 -1 0
c p weight -416 1 0
c p weight 419 -1 0
c p weight -419 1 0
c p weight 422 -1 0
c p weight -422 1 0
c p weight 425 -1 0
c p weight -425 1 0
c p weight 428 -1 0
c p weight -428 1 0
c p weight 431 -1 0
c p weight -431 1 0
c p weight 434 -1 0
c p weight -434 1 0
c p weight 437 -1 0
c p weight -437 1 0
c p weight 440 -1 0
c p weight -440 1 0
c p weight 443 -1 0
c p weight -443 1 0
c p weight 446 -1 0
c p weight -446 1 0
c p weight 449 -1 0
c p weight -449 1 0
c p weight 452 -1 0
c p weight -452 1 0
c p weight 455 -1 0
c p weight -455 1 0
c p weight 458 -1 0
c p weight -458 1 0
c p weight 461 -1 0
c p weight -461 1 0
c p weight 464 -1 0
c p weight -464 1 0
c p weight 467 -1 0
c p weight -467 1 0
c p weight 470 -1 0
c p weight -470 1 0
c p weight 473 -1 0
c p weight -473 1 0
c p weight 476 -1 0
c p weight -476 1 0
c p weight 479 -1 0
c p weight -479 1 0
c p weight 482 -1 0
c p weight -482 1 0
c p weight 485 -1 0
c p weight -485 1 0
c p weight 488 -1 0
c p weight -488 1 0
c p weight 491 -1 0
c p weight -491 1 0
c p weight 494 -1 0
c p weight -494 1 0
c p weight 497 -1 0
c p weight -497 1 0
c p weight 500 -1 0
c p weight -500 1 0
c p weight 503 -1 0
c p weight -503 1 0
c p weight 506 -1 0
c p weight -506 1 0
c p weight 509 -1 0
c p weight -509 1 0
c p weight 512 -1 0
c p weight -512 1 0
c p weight 515 -1 0
c p weight -515 1 0
c p weight 518 -1 0
c p weight -518 1 0
c p weight 521 -1 0
c p weight -521 1 0
c p weight 524 -1 0
c p weight -524 1 0
c p weight 527 -1 0
c p weight -527 1 0
c p weight 530 -1 0
c p weight -530 1 0
c p weight 533 -1 0
c p weight -533 1 0
c p weight 536 -1 0
c p weight -536 1 0
c p weight 539 -1 0
c p weight -539 1 0
c p weight 542 -1 0
c p weight -542 1 0
c p weight 545 -1 0
c p weight -545 1 0
c p weight 548 -1 0
c p weight -548 1 0
c p weight 551 -1 0
c p weight -551 1 0
c p weight 554 -1 0
c p weight -554 1 0
c p weight 557 -1 0
c p weight -557 1 0
c p weight 560 -1 0
c p weight -560 1 0
c p weight 563 -1 0
c p weight -563 1 0
c p weight 566 -1 0
c p weight -566 1 0
c p weight 569 -1 0
c p weight -569 1 0
c p weight 572 -1 0
c p weight -572 1 0
c p weight 575 -1 0
c p weight -575 1 0
c p weight 578 -1 0
c p weight -578 1 0
c p weight 581 -1 0
c p weight -581 1 0
c p weight 584 -1 0
c p weight -584 1 0
c p weight 587 -1 0
c p weight -587 1 0
c p weight 590 -1 0
c p weight -590 1 0
-233 0
-231 0
-229 0
-227 0
-225 0
-223 0
-221 0
-219 0
-217 0
-215 0
-213 0
-211 0
-209 0
-207 0
-205 0
-203 0
-201 0
-199 0
-197 0
-195 0
-193 0
-191 0
-189 0
-187 0
-185 0
-183 0
-181 0
-179 0
-177 0
-175 0
-173 0
-171 0
-169 0
-167 0
-165 0
-163 0
-161 0
-159 0
-157 0
-155 0
-153 0
-151 0
-149 0
-147 0
-145 0
-143 0
-141 0
-139 0
-137 0
-135 0
-133 0
-131 0
-129 0
-127 0
-125 0
-123 0
-121 0
-119 0
-117 0
-115 0
-113 0
-111 0
-109 0
-107 0
-105 0
-103 0
-101 0
-99 0
-97 0
-95 0
-93 0
-91 0
-89 0
-87 0
-85 0
-83 0
-81 0
-79 0
-77 0
-75 0
-73 0
-71 0
-69 0
-67 0
-65 0
-63 0
-61 0
-59 0
-57 0
-55 0
-53 0
-51 0
-49 0
-47 0
-45 0
-43 0
-41 0
-39 0
-37 0
-35 0
-33 0
-31 0
-29 0
-27 0
-25 0
-23 0
-21 0
-19 0
-17 0
-15 0
-13 0
-11 0
-9 0
-7 0
-5 0
-3 0
-1 0
235 233 -234 0
235 -233 234 0
-235 233 234 0
-235 -233 -234 0
-236 233 0
-236 234 0
236 -233 -234 0
237 -233 235 0
-237 233 235 0
-238 235 0
237 -238 -233 0
-237 -238 233 0
237 238 233 -235 0
-237 238 -233 -235 0
-239 235 0
237 -239 233 0
-237 -239 -233 0
237 239 -233 -235 0
-237 239 233 -235 0
-240 237 0
-240 235 0
-240 -233 0
240 -237 233 -235 0
241 237 -235 0
241 -237 235 0
-241 237 235 0
-241 -237 -235 0
-242 237 0
-242 235 0
242 -237 -235 0
243 237 -231 0
243 -237 231 0
-243 237 231 0
-243 -237 -231 0
244 241 -232 0
244 -241 232 0
-244 241 232 0
-244 -241 -232 0
-245 237 0
-245 232 0
-245 231 -241 0
-245 -231 241 0
245 -237 231 241 -232 0
245 -237 -231 -241 -232 0
246 243 -229 0
246 -243 229 0
-246 243 229 0
-246 -243 -229 0
247 232 -230 0
247 -232 230 0
-247 232 230 0
-247 -232 -230 0
-248 243 0
-248 230 0
-248 229 -232 0
-248 -229 232 0
248 -243 229 232 -230 0
248 -243 -229 -232 -230 0
249 246 -227 0
249 -246 227 0
-249 246 227 0
-249 -246 -227 0
250 230 -228 0
250 -230 228 0
-250 230 228 0
-250 -230 -228 0
-251 246 0
-251 228 0
-251 227 -230 0
-251 -227 230 0
251 -246 227 230 -228 0
251 -246 -227 -230 -228 0
252 249 -225 0
252 -249 225 0
-252 249 225 0
-252 -249 -225 0
253 228 -226 0
253 -228 226 0
-253 228 226 0
-253 -228 -226 0
-254 249 0
-254 226 0
-254 225 -228 0
-254 -225 228 0
254 -249 225 228 -226 0
254 -249 -225 -228 -226 0
255 252 -223 0
255 -252 223 0
-255 252 223 0
-255 -252 -223 0
256 226 -224 0
256 -226 224 0
-256 226 224 0
-256 -226 -224 0
-257 252 0
-257 224 0
-257 223 -226 0
-257 -223 226 0
257 -252 223 226 -224 0
257 -252 -223 -226 -224 0
258 255 -221 0
258 -255 221 0
-258 255 221 0
-258 -255 -221 0
259 224 -222 0
259 -224 222 0
-259 224 222 0
-259 -224 -222 0
-260 255 0
-260 222 0
-260 221 -224 0
-260 -221 224 0
260 -255 221 224 -222 0
260 -255 -221 -224 -222 0
261 258 -219 0
261 -258 219 0
-261 258 219 0
-261 -258 -219 0
262 222 -220 0
262 -222 220 0
-262 222 220 0
-262 -222 -220 0
-263 258 0
-263 220 0
-263 219 -222 0
-263 -219 222 0
263 -258 219 222 -220 0
263 -258 -219 -222 -220 0
264 261 -217 0
264 -261 217 0
-264 261 217 0
-264 -261 -217 0
265 220 -218 0
265 -220 218 0
-265 220 218 0
-265 -220 -218 0
-266 261 0
-266 218 0
-266 217 -220 0
-266 -217 220 0
266 -261 217 220 -218 0
266 -261 -217 -220 -218 0
267 264 -215 0
267 -264 215 0
-267 264 215 0
-267 -264 -215 0
268 218 -216 0
268 -218 216 0
-268 218 216 0
-268 -218 -216 0
-269 264 0
-269 216 0
-269 215 -218 0
-269 -215 218 0
269 -264 215 218 -216 0
269 -264 -215 -218 -216 0
270 267 -213 0
270 -267 213 0
-270 267 213 0
-270 -267 -213 0
271 216 -214 0
271 -216 214 0
-271 216 214 0
-271 -216 -214 0
-272 267 0
-272 214 0
-272 213 -216 0
-272 -213 216 0
272 -267 213 216 -214 0
272 -267 -213 -216 -214 0
273 270 -211 0
273 -270 211 0
-273 270 211 0
-273 -270 -211 0
274 214 -212 0
274 -214 212 0
-274 214 212 0
-274 -214 -212 0
-275 270 0
-275 212 0
-275 211 -214 0
-275 -211 214 0
275 -270 211 214 -212 0
275 -270 -211 -214 -212 0
276 273 -209 0
276 -273 209 0
-276 273 209 0
-276 -273 -209 0
277 212 -210 0
277 -212 210 0
-277 212 210 0
-277 -212 -210 0
-278 273 0
-278 210 0
-278 209 -212 0
-278 -209 212 0
278 -273 209 212 -210 0
278 -273 -209 -212 -210 0
279 276 -207 0
279 -276 207 0
-279 276 207 0
-279 -276 -207 0
280 210 -208 0
280 -210 208 0
-280 210 208 0
-280 -210 -208 0
-281 276 0
-281 208 0
-281 207 -210 0
-281 -207 210 0
281 -276 207 210 -208 0
281 -276 -207 -210 -208 0
282 279 -205 0
282 -279 205 0
-282 279 205 0
-282 -279 -205 0
283 208 -206 0
283 -208 206 0
-283 208 206 0
-283 -208 -206 0
-284 279 0
-284 206 0
-284 205 -208 0
-284 -205 208 0
284 -279 205 208 -206 0
284 -279 -205 -208 -206 0
285 282 -203 0
285 -282 203 0
-285 282 203 0
-285 -282 -203 0
286 206 -204 0
286 -206 204 0
-286 206 204 0
-286 -206 -204 0
-287 282 0
-287 204 0
-287 203 -206 0
-287 -203 206 0
287 -282 203 206 -204 0
287 -282 -203 -206 -204 0
288 285 -201 0
288 -285 201 0
-288 285 201 0
-288 -285 -201 0
289 204 -202 0
289 -204 202 0
-289 204 202 0
-289 -204 -202 0
-290 285 0
-290 202 0
-290 201 -204 0
-290 -201 204 0
290 -285 201 204 -202 0
290 -285 -201 -204 -202 0
291 288 -199 0
291 -288 199 0
-291 288 199 0
-291 -288 -199 0
292 202 -200 0
292 -202 200 0
-292 202 200 0
-292 -202 -200 0
-293 288 0
-293 200 0
-293 199 -202 0
-293 -199 202 0
293 -288 199 202 -200 0
293 -288 -199 -202 -200 0
294 291 -197 0
294 -291 197 0
-294 291 197 0
-294 -291 -197 0
295 200 -198 0
295 -200 198 0
-295 200 198 0
-295 -200 -198 0
-296 291 0
-296 198 0
-296 197 -200 0
-296 -197 200 0
296 -291 197 200 -198 0
296 -291 -197 -200 -198 0
297 294 -195 0
297 -294 195 0
-297 294 195 0
-297 -294 -195 0
298 198 -196 0
298 -198 196 0
-298 198 196 0
-298 -198 -196 0
-299 294 0
-299 196 0
-299 195 -198 0
-299 -195 198 0
299 -294 195 198 -196 0
299 -294 -195 -198 -196 0
300 297 -193 0
300 -297 193 0
-300 297 193 0
-300 -297 -193 0
301 196 -194 0
301 -196 194 0
-301 196 194 0
-301 -196 -194 0
-302 297 0
-302 194 0
-302 193 -196 0
-302 -193 196 0
302 -297 193 196 -194 0
302 -297 -193 -196 -194 0
303 300 -191 0
303 -300 191 0
-303 300 191 0
-303 -300 -191 0
304 194 -192 0
304 -194 192 0
-304 194 192 0
-304 -194 -192 0
-305 300 0
-305 192 0
-305 191 -194 0
-305 -191 194 0
305 -300 191 194 -192 0
305 -300 -191 -194 -192 0
306 303 -189 0
306 -303 189 0
-306 303 189 0
-306 -303 -189 0
307 192 -190 0
307 -192 190 0
-307 192 190 0
-307 -192 -190 0
-308 303 0
-308 190 0
-308 189 -192 0
-308 -189 192 0
308 -303 189 192 -190 0
308 -303 -189 -192 -190 0
309 306 -187 0
309 -306 187 0
-309 306 187 0
-309 -306 -187 0
310 190 -188 0
310 -190 188 0
-310 190 188 0
-310 -190 -188 0
-311 306 0
-311 188 0
-311 187 -190 0
-311 -187 190 0
311 -306 187 190 -188 0
311 -306 -187 -190 -188 0
312 309 -185 0
312 -309 185 0
-312 309 185 0
-312 -309 -185 0
313 188 -186 0
313 -188 186 0
-313 188 186 0
-313 -188 -186 0
-314 309 0
-314 186 0
-314 185 -188 0
-314 -185 188 0
314 -309 185 188 -186 0
314 -309 -185 -188 -186 0
315 312 -183 0
315 -312 183 0
-315 312 183 0
-315 -312 -183 0
316 186 -184 0
316 -186 184 0
-316 186 184 0
-316 -186 -184 0
-317 312 0
-317 184 0
-317 183 -186 0
-317 -183 186 0
317 -312 183 186 -184 0
317 -312 -183 -186 -184 0
318 315 -181 0
318 -315 181 0
-318 315 181 0
-318 -315 -181 0
319 184 -182 0
319 -184 182 0
-319 184 182 0
-319 -184 -182 0
-320 315 0
-320 182 0
-320 181 -184 0
-320 -181 184 0
320 -315 181 184 -182 0
320 -315 -181 -184 -182 0
321 318 -179 0
321 -318 179 0
-321 318 179 0
-321 -318 -179 0
322 182 -180 0
322 -182 180 0
-322 182 180 0
-322 -182 -180 0
-323 318 0
-323 180 0
-323 179 -182 0
-323 -179 182 0
323 -318 179 182 -180 0
323 -318 -179 -182 -180 0
324 321 -177 0
324 -321 177 0
-324 321 177 0
-324 -321 -177 0
325 180 -178 0
325 -180 178 0
-325 180 178 0
-325 -180 -178 0
-326 321 0
-326 178 0
-326 177 -180 0
-326 -177 180 0
326 -321 177 180 -178 0
326 -321 -177 -180 -178 0
327 324 -175 0
327 -324 175 0
-327 324 175 0
-327 -324 -175 0
328 178 -176 0
328 -178 176 0
-328 178 176 0
-328 -178 -176 0
-329 324 0
-329 176 0
-329 175 -178 0
-329 -175 178 0
329 -324 175 178 -176 0
329 -324 -175 -178 -176 0
330 327 -173 0
330 -327 173 0
-330 327 173 0
-330 -327 -173 0
331 176 -174 0
331 -176 174 0
-331 176 174 0
-331 -176 -174 0
-332 327 0
-332 174 0
-332 173 -176 0
-332 -173 176 0
332 -327 173 176 -174 0
332 -327 -173 -176 -174 0
333 330 -171 0
333 -330 171 0
-333 330 171 0
-333 -330 -171 0
334 174 -172 0
334 -174 172 0
-334 174 172 0
-334 -174 -172 0
-335 330 0
-335 172 0
-335 171 -174 0
-335 -171 174 0
335 -330 171 174 -172 0
335 -330 -171 -174 -172 0
336 333 -169 0
336 -333 169 0
-336 333 169 0
-336 -333 -169 0
337 172 -170 0
337 -172 170 0
-337 172 170 0
-337 -172 -170 0
-338 333 0
-338 170 0
-338 169 -172 0
-338 -169 172 0
338 -333 169 172 -170 0
338 -333 -169 -172 -170 0
339 336 -167 0
339 -336 167 0
-339 336 167 0
-339 -336 -167 0
340 170 -168 0
340 -170 168 0
-340 170 168 0
-340 -170 -168 0
-341 336 0
-341 168 0
-341 167 -170 0
-341 -167 170 0
341 -336 167 170 -168 0
341 -336 -167 -170 -168 0
342 339 -165 0
342 -339 165 0
-342 339 165 0
-342 -339 -165 0
343 168 -166 0
343 -168 166 0
-343 168 166 0
-343 -168 -166 0
-344 339 0
-344 166 0
-344 165 -168 0
-344 -165 168 0
344 -339 165 168 -166 0
344 -339 -165 -168 -166 0
345 342 -163 0
345 -342 163 0
-345 342 163 0
-345 -342 -163 0
346 166 -164 0
346 -166 164 0
-346 166 164 0
-346 -166 -164 0
-347 342 0
-347 164 0
-347 163 -166 0
-347 -163 166 0
347 -342 163 166 -164 0
347 -342 -163 -166 -164 0
348 345 -161 0
348 -345 161 0
-348 345 161 0
-348 -345 -161 0
349 164 -162 0
349 -164 162 0
-349 164 162 0
-349 -164 -162 0
-350 345 0
-350 162 0
-350 161 -164 0
-350 -161 164 0
350 -345 161 164 -162 0
350 -345 -161 -164 -162 0
351 348 -159 0
351 -348 159 0
-351 348 159 0
-351 -348 -159 0
352 162 -160 0
352 -162 160 0
-352 162 160 0
-352 -162 -160 0
-353 348 0
-353 160 0
-353 159 -162 0
-353 -159 162 0
353 -348 159 162 -160 0
353 -348 -159 -162 -160 0
354 351 -157 0
354 -351 157 0
-354 351 157 0
-354 -351 -157 0
355 160 -158 0
355 -160 158 0
-355 160 158 0
-355 -160 -158 0
-356 351 0
-356 158 0
-356 157 -160 0
-356 -157 160 0
356 -351 157 160 -158 0
356 -351 -157 -160 -158 0
357 354 -155 0
357 -354 155 0
-357 354 155 0
-357 -354 -155 0
358 158 -156 0
358 -158 156 0
-358 158 156 0
-358 -158 -156 0
-359 354 0
-359 156 0
-359 155 -158 0
-359 -155 158 0
359 -354 155 158 -156 0
359 -354 -155 -158 -156 0
360 357 -153 0
360 -357 153 0
-360 357 153 0
-360 -357 -153 0
361 156 -154 0
361 -156 154 0
-361 156 154 0
-361 -156 -154 0
-362 357 0
-362 154 0
-362 153 -156 0
-362 -153 156 0
362 -357 153 156 -154 0
362 -357 -153 -156 -154 0
363 360 -151 0
363 -360 151 0
-363 360 151 0
-363 -360 -151 0
364 154 -152 0
364 -154 152 0
-364 154 152 0
-364 -154 -152 0
-365 360 0
-365 152 0
-365 151 -154 0
-365 -151 154 0
365 -360 151 154 -152 0
365 -360 -151 -154 -152 0
366 363 -149 0
366 -363 149 0
-366 363 149 0
-366 -363 -149 0
367 152 -150 0
367 -152 150 0
-367 152 150 0
-367 -152 -150 0
-368 363 0
-368 150 0
-368 149 -152 0
-368 -149 152 0
368 -363 149 152 -150 0
368 -363 -149 -152 -150 0
369 366 -147 0
369 -366 147 0
-369 366 147 0
-369 -366 -147 0
370 150 -148 0
370 -150 148 0
-370 150 148 0
-370 -150 -148 0
-371 366 0
-371 148 0
-371 147 -150 0
-371 -147 150 0
371 -366 147 150 -148 0
371 -366 -147 -150 -148 0
372 369 -145 0
372 -369 145 0
-372 369 145 0
-372 -369 -145 0
373 148 -146 0
373 -148 146 0
-373 148 146 0
-373 -148 -146 0
-374 369 0
-374 146 0
-374 145 -148 0
-374 -145 148 0
374 -369 145 148 -146 0
374 -369 -145 -148 -146 0
375 372 -143 0
375 -372 143 0
-375 372 143 0
-375 -372 -143 0
376 146 -144 0
376 -146 144 0
-376 146 144 0
-376 -146 -144 0
-377 372 0
-377 144 0
-377 143 -146 0
-377 -143 146 0
377 -372 143 146 -144 0
377 -372 -143 -146 -144 0
378 375 -141 0
378 -375 141 0
-378 375 141 0
-378 -375 -141 0
379 144 -142 0
379 -144 142 0
-379 144 142 0
-379 -144 -142 0
-380 375 0
-380 142 0
-380 141 -144 0
-380 -141 144 0
380 -375 141 144 -142 0
380 -375 -141 -144 -142 0
381 378 -139 0
381 -378 139 0
-381 378 139 0
-381 -378 -139 0
382 142 -140 0
382 -142 140 0
-382 142 140 0
-382 -142 -140 0
-383 378 0
-383 140 0
-383 139 -142 0
-383 -139 142 0
383 -378 139 142 -140 0
383 -378 -139 -142 -140 0
384 381 -137 0
384 -381 137 0
-384 381 137 0
-384 -381 -137 0
385 140 -138 0
385 -140 138 0
-385 140 138 0
-385 -140 -138 0
-386 381 0
-386 138 0
-386 137 -140 0
-386 -137 140 0
386 -381 137 140 -138 0
386 -381 -137 -140 -138 0
387 384 -135 0
387 -384 135 0
-387 384 135 0
-387 -384 -135 0
388 138 -136 0
388 -138 136 0
-388 138 136 0
-388 -138 -136 0
-389 384 0
-389 136 0
-389 135 -138 0
-389 -135 138 0
389 -384 135 138 -136 0
389 -384 -135 -138 -136 0
390 387 -133 0
390 -387 133 0
-390 387 133 0
-390 -387 -133 0
391 136 -134 0
391 -136 134 0
-391 136 134 0
-391 -136 -134 0
-392 387 0
-392 134 0
-392 133 -136 0
-392 -133 136 0
392 -387 133 136 -134 0
392 -387 -133 -136 -134 0
393 390 -131 0
393 -390 131 0
-393 390 131 0
-393 -390 -131 0
394 134 -132 0
394 -134 132 0
-394 134 132 0
-394 -134 -132 0
-395 390 0
-395 132 0
-395 131 -134 0
-395 -131 134 0
395 -390 131 134 -132 0
395 -390 -131 -134 -132 0
396 393 -129 0
396 -393 129 0
-396 393 129 0
-396 -393 -129 0
397 132 -130 0
397 -132 130 0
-397 132 130 0
-397 -132 -130 0
-398 393 0
-398 130 0
-398 129 -132 0
-398 -129 132 0
398 -393 129 132 -130 0
398 -393 -129 -132 -130 0
399 396 -127 0
399 -396 127 0
-399 396 127 0
-399 -396 -127 0
400 130 -128 0
400 -130 128 0
-400 130 128 0
-400 -130 -128 0
-401 396 0
-401 128 0
-401 127 -130 0
-401 -127 130 0
401 -396 127 130 -128 0
401 -396 -127 -130 -128 0
402 399 -125 0
402 -399 125 0
-402 399 125 0
-402 -399 -125 0
403 128 -126 0
403 -128 126 0
-403 128 126 0
-403 -128 -126 0
-404 399 0
-404 126 0
-404 125 -128 0
-404 -125 128 0
404 -399 125 128 -126 0
404 -399 -125 -128 -126 0
405 402 -123 0
405 -402 123 0
-405 402 123 0
-405 -402 -123 0
406 126 -124 0
406 -126 124 0
-406 126 124 0
-406 -126 -124 0
-407 402 0
-407 124 0
-407 123 -126 0
-407 -123 126 0
407 -402 123 126 -124 0
407 -402 -123 -126 -124 0
408 405 -121 0
408 -405 121 0
-408 405 121 0
-408 -405 -121 0
409 124 -122 0
409 -124 122 0
-409 124 122 0
-409 -124 -122 0
-410 405 0
-410 122 0
-410 121 -124 0
-410 -121 124 0
410 -405 121 124 -122 0
410 -405 -121 -124 -122 0
411 408 -119 0
411 -408 119 0
-411 408 119 0
-411 -408 -119 0
412 122 -120 0
412 -122 120 0
-412 122 120 0
-412 -122 -120 0
-413 408 0
-413 120 0
-413 119 -122 0
-413 -119 122 0
413 -408 119 122 -120 0
413 -408 -119 -122 -120 0
414 411 -117 0
414 -411 117 0
-414 411 117 0
-414 -411 -117 0
415 120 -118 0
415 -120 118 0
-415 120 118 0
-415 -120 -118 0
-416 411 0
-416 118 0
-416 117 -120 0
-416 -117 120 0
416 -411 117 120 -118 0
416 -411 -117 -120 -118 0
417 414 -115 0
417 -414 115 0
-417 414 115 0
-417 -414 -115 0
418 118 -116 0
418 -118 116 0
-418 118 116 0
-418 -118 -116 0
-419 414 0
-419 116 0
-419 115 -118 0
-419 -115 118 0
419 -414 115 118 -116 0
419 -414 -115 -118 -116 0
420 417 -113 0
420 -417 113 0
-420 417 113 0
-420 -417 -113 0
421 116 -114 0
421 -116 114 0
-421 116 114 0
-421 -116 -114 0
-422 417 0
-422 114 0
-422 113 -116 0
-422 -113 116 0
422 -417 113 116 -114 0
422 -417 -113 -116 -114 0
423 420 -111 0
423 -420 111 0
-423 420 111 0
-423 -420 -111 0
424 114 -112 0
424 -114 112 0
-424 114 112 0
-424 -114 -112 0
-425 420 0
-425 112 0
-425 111 -114 0
-425 -111 114 0
425 -420 111 114 -112 0
425 -420 -111 -114 -112 0
426 423 -109 0
426 -423 109 0
-426 423 109 0
-426 -423 -109 0
427 112 -110 0
427 -112 110 0
-427 112 110 0
-427 -112 -110 0
-428 423 0
-428 110 0
-428 109 -112 0
-428 -109 112 0
428 -423 109 112 -110 0
428 -423 -109 -112 -110 0
429 426 -107 0
429 -426 107 0
-429 426 107 0
-429 -426 -107 0
430 110 -108 0
430 -110 108 0
-430 110 108 0
-430 -110 -108 0
-431 426 0
-431 108 0
-431 107 -110 0
-431 -107 110 0
431 -426 107 110 -108 0
431 -426 -107 -110 -108 0
432 429 -105 0
432 -429 105 0
-432 429 105 0
-432 -429 -105 0
433 108 -106 0
433 -108 106 0
-433 108 106 0
-433 -108 -106 0
-434 429 0
-434 106 0
-434 105 -108 0
-434 -105 108 0
434 -429 105 108 -106 0
434 -429 -105 -108 -106 0
435 432 -103 0
435 -432 103 0
-435 432 103 0
-435 -432 -103 0
436 106 -104 0
436 -106 104 0
-436 106 104 0
-436 -106 -104 0
-437 432 0
-437 104 0
-437 103 -106 0
-437 -103 106 0
437 -432 103 106 -104 0
437 -432 -103 -106 -104 0
438 435 -101 0
438 -435 101 0
-438 435 101 0
-438 -435 -101 0
439 104 -102 0
439 -104 102 0
-439 104 102 0
-439 -104 -102 0
-440 435 0
-440 102 0
-440 101 -104 0
-440 -101 104 0
440 -435 101 104 -102 0
440 -435 -101 -104 -102 0
441 438 -99 0
441 -438 99 0
-441 438 99 0
-441 -438 -99 0
442 102 -100 0
442 -102 100 0
-442 102 100 0
-442 -102 -100 0
-443 438 0
-443 100 0
-443 99 -102 0
-443 -99 102 0
443 -438 99 102 -100 0
443 -438 -99 -102 -100 0
444 441 -97 0
444 -441 97 0
-444 441 97 0
-444 -441 -97 0
445 100 -98 0
445 -100 98 0
-445 100 98 0
-445 -100 -98 0
-446 441 0
-446 98 0
-446 97 -100 0
-446 -97 100 0
446 -441 97 100 -98 0
446 -441 -97 -100 -98 0
447 444 -95 0
447 -444 95 0
-447 444 95 0
-447 -444 -95 0
448 98 -96 0
448 -98 96 0
-448 98 96 0
-448 -98 -96 0
-449 444 0
-449 96 0
-449 95 -98 0
-449 -95 98 0
449 -444 95 98 -96 0
449 -444 -95 -98 -96 0
450 447 -93 0
450 -447 93 0
-450 447 93 0
-450 -447 -93 0
451 96 -94 0
451 -96 94 0
-451 96 94 0
-451 -96 -94 0
-452 447 0
-452 94 0
-452 93 -96 0
-452 -93 96 0
452 -447 93 96 -94 0
452 -447 -93 -96 -94 0
453 450 -91 0
453 -450 91 0
-453 450 91 0
-453 -450 -91 0
454 94 -92 0
454 -94 92 0
-454 94 92 0
-454 -94 -92 0
-455 450 0
-455 92 0
-455 91 -94 0
-455 -91 94 0
455 -450 91 94 -92 0
455 -450 -91 -94 -92 0
456 453 -89 0
456 -453 89 0
-456 453 89 0
-456 -453 -89 0
457 92 -90 0
457 -92 90 0
-457 92 90 0
-457 -92 -90 0
-458 453 0
-458 90 0
-458 89 -92 0
-458 -89 92 0
458 -453 89 92 -90 0
458 -453 -89 -92 -90 0
459 456 -87 0
459 -456 87 0
-459 456 87 0
-459 -456 -87 0
460 90 -88 0
460 -90 88 0
-460 90 88 0
-460 -90 -88 0
-461 456 0
-461 88 0
-461 87 -90 0
-461 -87 90 0
461 -456 87 90 -88 0
461 -456 -87 -90 -88 0
462 459 -85 0
462 -459 85 0
-462 459 85 0
-462 -459 -85 0
463 88 -86 0
463 -88 86 0
-463 88 86 0
-463 -88 -86 0
-464 459 0
-464 86 0
-464 85 -88 0
-464 -85 88 0
464 -459 85 88 -86 0
464 -459 -85 -88 -86 0
465 462 -83 0
465 -462 83 0
-465 462 83 0
-465 -462 -83 0
466 86 -84 0
466 -86 84 0
-466 86 84 0
-466 -86 -84 0
-467 462 0
-467 84 0
-467 83 -86 0
-467 -83 86 0
467 -462 83 86 -84 0
467 -462 -83 -86 -84 0
468 465 -81 0
468 -465 81 0
-468 465 81 0
-468 -465 -81 0
469 84 -82 0
469 -84 82 0
-469 84 82 0
-469 -84 -82 0
-470 465 0
-470 82 0
-470 81 -84 0
-470 -81 84 0
470 -465 81 84 -82 0
470 -465 -81 -84 -82 0
471 468 -79 0
471 -468 79 0
-471 468 79 0
-471 -468 -79 0
472 82 -80 0
472 -82 80 0
-472 82 80 0
-472 -82 -80 0
-473 468 0
-473 80 0
-473 79 -82 0
-473 -79 82 0
473 -468 79 82 -80 0
473 -468 -79 -82 -80 0
474 471 -77 0
474 -471 77 0
-474 471 77 0
-474 -471 -77 0
475 80 -78 0
475 -80 78 0
-475 80 78 0
-475 -80 -78 0
-476 471 0
-476 78 0
-476 77 -80 0
-476 -77 80 0
476 -471 77 80 -78 0
476 -471 -77 -80 -78 0
477 474 -75 0
477 -474 75 0
-477 474 75 0
-477 -474 -75 0
478 78 -76 0
478 -78 76 0
-478 78 76 0
-478 -78 -76 0
-479 474 0
-479 76 0
-479 75 -78 0
-479 -75 78 0
479 -474 75 78 -76 0
479 -474 -75 -78 -76 0
480 477 -73 0
480 -477 73 0
-480 477 73 0
-480 -477 -73 0
481 76 -74 0
481 -76 74 0
-481 76 74 0
-481 -76 -74 0
-482 477 0
-482 74 0
-482 73 -76 0
-482 -73 76 0
482 -477 73 76 -74 0
482 -477 -73 -76 -74 0
483 480 -71 0
483 -480 71 0
-483 480 71 0
-483 -480 -71 0
484 74 -72 0
484 -74 72 0
-484 74 72 0
-484 -74 -72 0
-485 480 0
-485 72 0
-485 71 -74 0
-485 -71 74 0
485 -480 71 74 -72 0
485 -480 -71 -74 -72 0
486 483 -69 0
486 -483 69 0
-486 483 69 0
-486 -483 -69 0
487 72 -70 0
487 -72 70 0
-487 72 70 0
-487 -72 -70 0
-488 483 0
-488 70 0
-488 69 -72 0
-488 -69 72 0
488 -483 69 72 -70 0
488 -483 -69 -72 -70 0
489 486 -67 0
489 -486 67 0
-489 486 67 0
-489 -486 -67 0
490 70 -68 0
490 -70 68 0
-490 70 68 0
-490 -70 -68 0
-491 486 0
-491 68 0
-491 67 -70 0
-491 -67 70 0
491 -486 67 70 -68 0
491 -486 -67 -70 -68 0
492 489 -65 0
492 -489 65 0
-492 489 65 0
-492 -489 -65 0
493 68 -66 0
493 -68 66 0
-493 68 66 0
-493 -68 -66 0
-494 489 0
-494 66 0
-494 65 -68 0
-494 -65 68 0
494 -489 65 68 -66 0
494 -489 -65 -68 -66 0
495 492 -63 0
495 -492 63 0
-495 492 63 0
-495 -492 -63 0
496 66 -64 0
496 -66 64 0
-496 66 64 0
-496 -66 -64 0
-497 492 0
-497 64 0
-497 63 -66 0
-497 -63 66 0
497 -492 63 66 -64 0
497 -492 -63 -66 -64 0
498 495 -61 0
498 -495 61 0
-498 495 61 0
-498 -495 -61 0
499 64 -62 0
499 -64 62 0
-499 64 62 0
-499 -64 -62 0
-500 495 0
-500 62 0
-500 61 -64 0
-500 -61 64 0
500 -495 61 64 -62 0
500 -495 -61 -64 -62 0
501 498 -59 0
501 -498 59 0
-501 498 59 0
-501 -498 -59 0
502 62 -60 0
502 -62 60 0
-502 62 60 0
-502 -62 -60 0
-503 498 0
-503 60 0
-503 59 -62 0
-503 -59 62 0
503 -498 59 62 -60 0
503 -498 -59 -62 -60 0
504 501 -57 0
504 -501 57 0
-504 501 57 0
-504 -501 -57 0
505 60 -58 0
505 -60 58 0
-505 60 58 0
-505 -60 -58 0
-506 501 0
-506 58 0
-506 57 -60 0
-506 -57 60 0
506 -501 57 60 -58 0
506 -501 -57 -60 -58 0
507 504 -55 0
507 -504 55 0
-507 504 55 0
-507 -504 -55 0
508 58 -56 0
508 -58 56 0
-508 58 56 0
-508 -58 -56 0
-509 504 0
-509 56 0
-509 55 -58 0
-509 -55 58 0
509 -504 55 58 -56 0
509 -504 -55 -58 -56 0
510 507 -53 0
510 -507 53 0
-510 507 53 0
-510 -507 -53 0
511 56 -54 0
511 -56 54 0
-511 56 54 0
-511 -56 -54 0
-512 507 0
-512 54 0
-512 53 -56 0
-512 -53 56 0
512 -507 53 56 -54 0
512 -507 -53 -56 -54 0
513 510 -51 0
513 -510 51 0
-513 510 51 0
-513 -510 -51 0
514 54 -52 0
514 -54 52 0
-514 54 52 0
-514 -54 -52 0
-515 510 0
-515 52 0
-515 51 -54 0
-515 -51 54 0
515 -510 51 54 -52 0
515 -510 -51 -54 -52 0
516 513 -49 0
516 -513 49 0
-516 513 49 0
-516 -513 -49 0
517 52 -50 0
517 -52 50 0
-517 52 50 0
-517 -52 -50 0
-518 513 0
-518 50 0
-518 49 -52 0
-518 -49 52 0
518 -513 49 52 -50 0
518 -513 -49 -52 -50 0
519 516 -47 0
519 -516 47 0
-519 516 47 0
-519 -516 -47 0
520 50 -48 0
520 -50 48 0
-520 50 48 0
-520 -50 -48 0
-521 516 0
-521 48 0
-521 47 -50 0
-521 -47 50 0
521 -516 47 50 -48 0
521 -516 -47 -50 -48 0
522 519 -45 0
522 -519 45 0
-522 519 45 0
-522 -519 -45 0
523 48 -46 0
523 -48 46 0
-523 48 46 0
-523 -48 -46 0
-524 519 0
-524 46 0
-524 45 -48 0
-524 -45 48 0
524 -519 45 48 -46 0
524 -519 -45 -48 -46 0
525 522 -43 0
525 -522 43 0
-525 522 43 0
-525 -522 -43 0
526 46 -44 0
526 -46 44 0
-526 46 44 0
-526 -46 -44 0
-527 522 0
-527 44 0
-527 43 -46 0
-527 -43 46 0
527 -522 43 46 -44 0
527 -522 -43 -46 -44 0
528 525 -41 0
528 -525 41 0
-528 525 41 0
-528 -525 -41 0
529 44 -42 0
529 -44 42 0
-529 44 42 0
-529 -44 -42 0
-530 525 0
-530 42 0
-530 41 -44 0
-530 -41 44 0
530 -525 41 44 -42 0
530 -525 -41 -44 -42 0
531 528 -39 0
531 -528 39 0
-531 528 39 0
-531 -528 -39 0
532 42 -40 0
532 -42 40 0
-532 42 40 0
-532 -42 -40 0
-533 528 0
-533 40 0
-533 39 -42 0
-533 -39 42 0
533 -528 39 42 -40 0
533 -528 -39 -42 -40 0
534 531 -37 0
534 -531 37 0
-534 531 37 0
-534 -531 -37 0
535 40 -38 0
535 -40 38 0
-535 40 38 0
-535 -40 -38 0
-536 531 0
-536 38 0
-536 37 -40 0
-536 -37 40 0
536 -531 37 40 -38 0
536 -531 -37 -40 -38 0
537 534 -35 0
537 -534 35 0
-537 534 35 0
-537 -534 -35 0
538 38 -36 0
538 -38 36 0
-538 38 36 0
-538 -38 -36 0
-539 534 0
-539 36 0
-539 35 -38 0
-539 -35 38 0
539 -534 35 38 -36 0
539 -534 -35 -38 -36 0
540 537 -33 0
540 -537 33 0
-540 537 33 0
-540 -537 -33 0
541 36 -34 0
541 -36 34 0
-541 36 34 0
-541 -36 -34 0
-542 537 0
-542 34 0
-542 33 -36 0
-542 -33 36 0
542 -537 33 36 -34 0
542 -537 -33 -36 -34 0
543 540 -31 0
543 -540 31 0
-543 540 31 0
-543 -540 -31 0
544 34 -32 0
544 -34 32 0
-544 34 32 0
-544 -34 -32 0
-545 540 0
-545 32 0
-545 31 -34 0
-545 -31 34 0
545 -540 31 34 -32 0
545 -540 -31 -34 -32 0
546 543 -29 0
546 -543 29 0
-546 543 29 0
-546 -543 -29 0
547 32 -30 0
547 -32 30 0
-547 32 30 0
-547 -32 -30 0
-548 543 0
-548 30 0
-548 29 -32 0
-548 -29 32 0
548 -543 29 32 -30 0
548 -543 -29 -32 -30 0
549 546 -27 0
549 -546 27 0
-549 546 27 0
-549 -546 -27 0
550 30 -28 0
550 -30 28 0
-550 30 28 0
-550 -30 -28 0
-551 546 0
-551 28 0
-551 27 -30 0
-551 -27 30 0
551 -546 27 30 -28 0
551 -546 -27 -30 -28 0
552 549 -25 0
552 -549 25 0
-552 549 25 0
-552 -549 -25 0
553 28 -26 0
553 -28 26 0
-553 28 26 0
-553 -28 -26 0
-554 549 0
-554 26 0
-554 25 -28 0
-554 -25 28 0
554 -549 25 28 -26 0
554 -549 -25 -28 -26 0
555 552 -23 0
555 -552 23 0
-555 552 23 0
-555 -552 -23 0
556 26 -24 0
556 -26 24 0
-556 26 24 0
-556 -26 -24 0
-557 552 0
-557 24 0
-557 23 -26 0
-557 -23 26 0
557 -552 23 26 -24 0
557 -552 -23 -26 -24 0
558 555 -21 0
558 -555 21 0
-558 555 21 0
-558 -555 -21 0
559 24 -22 0
559 -24 22 0
-559 24 22 0
-559 -24 -22 0
-560 555 0
-560 22 0
-560 21 -24 0
-560 -21 24 0
560 -555 21 24 -22 0
560 -555 -21 -24 -22 0
561 558 -19 0
561 -558 19 0
-561 558 19 0
-561 -558 -19 0
562 22 -20 0
562 -22 20 0
-562 22 20 0
-562 -22 -20 0
-563 558 0
-563 20 0
-563 19 -22 0
-563 -19 22 0
563 -558 19 22 -20 0
563 -558 -19 -22 -20 0
564 561 -17 0
564 -561 17 0
-564 561 17 0
-564 -561 -17 0
565 20 -18 0
565 -20 18 0
-565 20 18 0
-565 -20 -18 0
-566 561 0
-566 18 0
-566 17 -20 0
-566 -17 20 0
566 -561 17 20 -18 0
566 -561 -17 -20 -18 0
567 564 -15 0
567 -564 15 0
-567 564 15 0
-567 -564 -15 0
568 18 -16 0
568 -18 16 0
-568 18 16 0
-568 -18 -16 0
-569 564 0
-569 16 0
-569 15 -18 0
-569 -15 18 0
569 -564 15 18 -16 0
569 -564 -15 -18 -16 0
570 567 -13 0
570 -567 13 0
-570 567 13 0
-570 -567 -13 0
571 16 -14 0
571 -16 14 0
-571 16 14 0
-571 -16 -14 0
-572 567 0
-572 14 0
-572 13 -16 0
-572 -13 16 0
572 -567 13 16 -14 0
572 -567 -13 -16 -14 0
573 570 -11 0
573 -570 11 0
-573 570 11 0
-573 -570 -11 0
574 14 -12 0
574 -14 12 0
-574 14 12 0
-574 -14 -12 0
-575 570 0
-575 12 0
-575 11 -14 0
-575 -11 14 0
575 -570 11 14 -12 0
575 -570 -11 -14 -12 0
576 573 -9 0
576 -573 9 0
-576 573 9 0
-576 -573 -9 0
577 12 -10 0
577 -12 10 0
-577 12 10 0
-577 -12 -10 0
-578 573 0
-578 10 0
-578 9 -12 0
-578 -9 12 0
578 -573 9 12 -10 0
578 -573 -9 -12 -10 0
579 576 -7 0
579 -576 7 0
-579 576 7 0
-579 -576 -7 0
580 10 -8 0
580 -10 8 0
-580 10 8 0
-580 -10 -8 0
-581 576 0
-581 8 0
-581 7 -10 0
-581 -7 10 0
581 -576 7 10 -8 0
581 -576 -7 -10 -8 0
582 579 -5 0
582 -579 5 0
-582 579 5 0
-582 -579 -5 0
583 8 -6 0
583 -8 6 0
-583 8 6 0
-583 -8 -6 0
-584 579 0
-584 6 0
-584 5 -8 0
-584 -5 8 0
584 -579 5 8 -6 0
584 -579 -5 -8 -6 0
585 582 -3 0
585 -582 3 0
-585 582 3 0
-585 -582 -3 0
586 6 -4 0
586 -6 4 0
-586 6 4 0
-586 -6 -4 0
-587 582 0
-587 4 0
-587 3 -6 0
-587 -3 6 0
587 -582 3 6 -4 0
587 -582 -3 -6 -4 0
588 585 -1 0
588 -585 1 0
-588 585 1 0
-588 -585 -1 0
589 4 -2 0
589 -4 2 0
-589 4 2 0
-589 -4 -2 0
-590 585 0
-590 2 0
-590 1 -4 0
-590 -1 4 0
590 -585 1 4 -2 0
590 -585 -1 -4 -2 0
-588 0
-585 0
-589 0
-582 0
-586 0
-579 0
-583 0
-576 0
-580 0
-573 0
-577 0
-570 0
-574 0
-567 0
-571 0
-564 0
-568 0
-561 0
-565 0
-558 0
-562 0
-555 0
-559 0
-552 0
-556 0
-549 0
-553 0
-546 0
-550 0
-543 0
-547 0
-540 0
-544 0
-537 0
-541 0
-534 0
-538 0
-531 0
-535 0
-528 0
-532 0
-525 0
-529 0
-522 0
-526 0
-519 0
-523 0
-516 0
-520 0
-513 0
-517 0
-510 0
-514 0
-507 0
-511 0
-504 0
-508 0
-501 0
-505 0
-498 0
-502 0
-495 0
-499 0
-492 0
-496 0
-489 0
-493 0
-486 0
-490 0
-483 0
-487 0
-480 0
-484 0
-477 0
-481 0
-474 0
-478 0
-471 0
-475 0
-468 0
-472 0
-465 0
-469 0
-462 0
-466 0
-459 0
-463 0
-456 0
-460 0
-453 0
-457 0
-450 0
-454 0
-447 0
-451 0
-444 0
-448 0
-441 0
-445 0
-438 0
-442 0
-435 0
-439 0
-432 0
-436 0
-429 0
-433 0
-426 0
-430 0
-423 0
-427 0
-420 0
-424 0
-417 0
-421 0
-414 0
-418 0
-411 0
-415 0
-408 0
-412 0
-405 0
-409 0
-402 0
-406 0
-399 0
-403 0
-396 0
-400 0
-393 0
-397 0
-390 0
-394 0
-387 0
-391 0
-384 0
-388 0
-381 0
-385 0
-378 0
-382 0
-375 0
-379 0
-372 0
-376 0
-369 0
-373 0
-366 0
-370 0
-363 0
-367 0
-360 0
-364 0
-357 0
-361 0
-354 0
-358 0
-351 0
-355 0
-348 0
-352 0
-345 0
-349 0
-342 0
-346 0
-339 0
-343 0
-336 0
-340 0
-333 0
-337 0
-330 0
-334 0
-327 0
-331 0
-324 0
-328 0
-321 0
-325 0
-318 0
-322 0
-315 0
-319 0
-312 0
-316 0
-309 0
-313 0
-306 0
-310 0
-303 0
-307 0
-300 0
-304 0
-297 0
-301 0
-294 0
-298 0
-291 0
-295 0
-288 0
-292 0
-285 0
-289 0
-282 0
-286 0
-279 0
-283 0
-276 0
-280 0
-273 0
-277 0
-270 0
-274 0
-267 0
-271 0
-264 0
-268 0
-261 0
-265 0
-258 0
-262 0
-255 0
-259 0
-252 0
-256 0
-249 0
-253 0
-246 0
-250 0
-243 0
-247 0
-237 0
-244 0
